data/FP/pine-benchmarks/ex7_reset_dampened.smt2
; ex7_reset_dampened.txt converted to CHC format
; Original: Conditional discrete-time system with reset
; State: x0, x1
; Input: r ∈ [0.0, 1.0]
; Initial: x0, x1 ∈ [0.0, 1.0], r ∈ [0.0, 1.0]
; Transition: if r > 0.5 then {x0' = x0 + 0.01*x1, x1' = -0.1*x0 + 0.99*x1}
;             else {x0' = 1, x1' = 1}
; Safety: Verify state variables stay within [0.0, 1.0]

(set-logic HORN)

(declare-fun inv ((_ FloatingPoint 8 24) (_ FloatingPoint 8 24) (_ FloatingPoint 8 24)) Bool)

; Initial state: x0, x1, r ∈ [0.0, 1.0]
(assert (forall ((x0 (_ FloatingPoint 8 24)) (x1 (_ FloatingPoint 8 24)) (r (_ FloatingPoint 8 24)))
         (=> (and (fp.geq x0 ((_ to_fp 8 24) RNE 0.0))
                  (fp.leq x0 ((_ to_fp 8 24) RNE 1.0))
                  (fp.geq x1 ((_ to_fp 8 24) RNE 0.0))
                  (fp.leq x1 ((_ to_fp 8 24) RNE 1.0))
                  (fp.geq r ((_ to_fp 8 24) RNE 0.0))
                  (fp.leq r ((_ to_fp 8 24) RNE 1.0)))
             (inv x0 x1 r))))

; Transition relation with conditional logic
; If r > 0.5: x0' = x0 + 0.01*x1, x1' = -0.1*x0 + 0.99*x1
; Else: x0' = 1, x1' = 1
; r' can be any value in [0.0, 1.0]
(assert (forall ((x0 (_ FloatingPoint 8 24)) (x1 (_ FloatingPoint 8 24)) (r (_ FloatingPoint 8 24))
                 (x0! (_ FloatingPoint 8 24)) (x1! (_ FloatingPoint 8 24)) (r! (_ FloatingPoint 8 24)))
         (=> (and (inv x0 x1 r)
                  (fp.geq r! ((_ to_fp 8 24) RNE 0.0))
                  (fp.leq r! ((_ to_fp 8 24) RNE 1.0))
                  (ite (fp.gt r ((_ to_fp 8 24) RNE 0.5))
                       (and (fp.eq x0! (fp.add RNE x0 (fp.mul RNE ((_ to_fp 8 24) RNE 0.01) x1)))
                            (fp.eq x1! (fp.add RNE (fp.mul RNE ((_ to_fp 8 24) RNE -0.1) x0)
                                               (fp.mul RNE ((_ to_fp 8 24) RNE 0.99) x1))))
                       (and (fp.eq x0! ((_ to_fp 8 24) RNE 1.0))
                            (fp.eq x1! ((_ to_fp 8 24) RNE 1.0)))))
             (inv x0! x1! r!))))

; Safety property: state variables should stay within [0.0, 1.0]
(assert (forall ((x0 (_ FloatingPoint 8 24)) (x1 (_ FloatingPoint 8 24)) (r (_ FloatingPoint 8 24)))
         (=> (inv x0 x1 r)
             (and (fp.geq x0 ((_ to_fp 8 24) RNE 0.0))
                  (fp.leq x0 ((_ to_fp 8 24) RNE 1.0))
                  (fp.geq x1 ((_ to_fp 8 24) RNE 0.0))
                  (fp.leq x1 ((_ to_fp 8 24) RNE 1.0))))))

(check-sat)
