data/FP/pine-benchmarks/ex7_reset_dampened.txt
if (r > 0.5) {
x0 := x0 + 0.01 * x1
x1 := -0.1 * x0 + 0.99 * x1
} else {
x0 := 1
x1 := 1
}

x0 \in [0.0, 1.0]
x1 \in [0.0, 1.0]
r \in [0.0, 1.0]